Maximize
  0 x0 + 40 x1 + 0 x2 + 26 x3 + 0 x4 + 24 x5 - 2 x6 + 0 x7 - x8 + 0 x9
   + 38 x10 + 0 x11 - 35 x12 + 0 x13 + 4 x14 + 0 x15 + 6 x16 + 0 x17
   + 0 x18 + 0 x19 + 44 x20 + 37 x21 + 0 x22 + 0 x23 + 22 x24 - 39 x25
   + 0 x26 + 0 x27 + 0 x28 + 0 x29 + 0 x30 + 4 x31 - 21 x32 - 27 x33
   + 0 x34 + 0 x35 + 0 x36 - 45 x37 + 0 x38 + 0 x39 + 0 x40 + 0 x41 + 0 x42
   + 0 x43 + 0 x44 + 27 x45 + 0 x46 + 0 x47 + 0 x48 + 0 x49 + 0 x50 + 0 x51
   + 6 x52 + 0 x53 + 0 x54 + 0 x55 + 0 x56 + 5 x57 + 0 x58 + 0 x59 + 0 x60
   + 0 x61 + 0 x62 + 0 x63 + 0 x64 + 0 x65 + 16 x66 + 0 x67 + 0 x68 + 0 x69
   + 0 x70 + 31 x71 + 0 x72 + 0 x73 + 0 x74 - 2 x75 + 0 x76 + 0 x77 + 0 x78
   + 0 x79 + [ - 40 x0 * x4 + 8 x0 * x11 - 70 x0 * x14 + 68 x0 * x18
   + 96 x0 * x22 + 36 x0 * x27 - 86 x0 * x31 - 94 x0 * x32 + 68 x0 * x33
   - 30 x0 * x34 - 2 x0 * x35 - 14 x0 * x41 + 26 x0 * x47 - 98 x0 * x49
   + 78 x0 * x51 + 72 x0 * x52 - 88 x0 * x57 - 88 x0 * x62 + 50 x0 * x66
   + 40 x0 * x75 - 82 x1 * x12 + 72 x1 * x14 + 84 x1 * x18 + 14 x1 * x26
   - 82 x1 * x41 - 46 x1 * x42 + 24 x1 * x48 + 38 x1 * x49 - 78 x1 * x50
   - 42 x1 * x59 + 48 x1 * x61 + 36 x1 * x62 + 36 x1 * x67 - 44 x1 * x73
   - 26 x1 * x76 + 78 x2 * x3 - 56 x2 * x5 + 42 x2 * x8 - 4 x2 * x15
   - 42 x2 * x27 - 34 x2 * x41 + 44 x2 * x46 + 54 x2 * x52 + 26 x2 * x54
   + 64 x2 * x59 - 32 x2 * x60 + 6 x2 * x61 - 46 x2 * x63 - 98 x2 * x64
   + 70 x2 * x66 + 24 x2 * x67 + 80 x2 * x74 - 10 x2 * x75 + 2 x2 * x79
   - 70 x3 * x5 + 48 x3 * x8 - 82 x3 * x20 + 86 x3 * x21 - 34 x3 * x36
   + 78 x3 * x47 + 6 x3 * x50 - 28 x3 * x52 + 28 x3 * x53 + 66 x3 * x55
   + 8 x3 * x56 - 44 x3 * x60 + 86 x3 * x68 + 44 x3 * x69 - 48 x3 * x74
   + 22 x3 * x75 + 26 x3 * x79 - 38 x4 * x13 + 82 x4 * x14 + 32 x4 * x15
   + 22 x4 * x23 + 48 x4 * x24 - 24 x4 * x26 - 60 x4 * x28 - 90 x4 * x31
   + 66 x4 * x32 - 78 x4 * x34 + 32 x4 * x41 + 84 x4 * x46 - 48 x4 * x47
   + 8 x4 * x49 + 6 x4 * x50 - 34 x4 * x51 - 76 x4 * x53 + 82 x4 * x56
   + 40 x4 * x57 + 68 x4 * x60 - 2 x4 * x62 + 28 x4 * x65 + 20 x4 * x77
   - 21 x5 ^2 - 14 x5 * x6 - 60 x5 * x7 - 52 x5 * x23 - 56 x5 * x24
   + 78 x5 * x25 - 68 x5 * x28 - 28 x5 * x31 + 16 x5 * x32 + 30 x5 * x42
   + 62 x5 * x47 + 34 x5 * x49 + 86 x5 * x53 + 90 x5 * x54 + 30 x5 * x56
   + 88 x5 * x58 + 80 x5 * x61 + 70 x5 * x62 - 36 x5 * x63 + 74 x5 * x64
   - 62 x5 * x71 + 48 x5 * x74 + 36 x5 * x75 - 64 x5 * x79 + 23 x6 ^2
   - 38 x6 * x7 - 28 x6 * x9 + 28 x6 * x15 + 8 x6 * x16 - 94 x6 * x20
   - 72 x6 * x21 + 38 x6 * x25 - 70 x6 * x26 + 46 x6 * x31 - 80 x6 * x32
   + 40 x6 * x35 + 74 x6 * x39 - 48 x6 * x41 - 90 x6 * x42 + 64 x6 * x43
   + 10 x6 * x49 + 32 x6 * x52 + 54 x6 * x60 + 12 x6 * x61 - 98 x6 * x66
   + 70 x6 * x67 - 46 x6 * x71 + 82 x6 * x75 - 18 x7 * x9 + 28 x7 * x15
   - 88 x7 * x16 + 48 x7 * x18 - 84 x7 * x21 - 36 x7 * x26 + 50 x7 * x32
   + 62 x7 * x35 - 96 x7 * x39 + 40 x7 * x42 - 24 x7 * x49 + 16 x7 * x50
   - 94 x7 * x59 - 46 x7 * x60 - 90 x7 * x61 - 28 x7 * x64 - 60 x7 * x68
   - 68 x7 * x74 - 24 x8 * x13 - 74 x8 * x24 + 72 x8 * x30 - 60 x8 * x35
   + 88 x8 * x36 + 32 x8 * x42 + 4 x8 * x44 - 82 x8 * x47 + 50 x8 * x51
   + 84 x8 * x53 + 88 x8 * x56 - 78 x8 * x60 + 22 x8 * x65 + 64 x8 * x67
   + 36 x8 * x69 + 14 x8 * x74 + 70 x8 * x77 + 66 x9 * x10 - 10 x9 * x16
   - 52 x9 * x21 - 38 x9 * x23 + 60 x9 * x25 - 36 x9 * x26 + 38 x9 * x30
   - 94 x9 * x32 + 56 x9 * x34 - 74 x9 * x36 + 18 x9 * x40 + 66 x9 * x43
   - 84 x9 * x46 - 86 x9 * x50 + 36 x9 * x54 - 16 x9 * x55 - 96 x9 * x56
   - 18 x9 * x57 - 68 x9 * x61 + 44 x9 * x64 + 66 x9 * x65 - 86 x9 * x66
   + 36 x9 * x78 - 92 x10 * x12 + 16 x10 * x13 + 28 x10 * x14
   + 36 x10 * x18 + 10 x10 * x19 - 88 x10 * x25 - 66 x10 * x28
   + 60 x10 * x29 + 80 x10 * x30 - 32 x10 * x38 - 96 x10 * x42
   + 76 x10 * x45 - 22 x10 * x47 + 52 x10 * x50 - 74 x10 * x52
   + 68 x10 * x54 + 4 x10 * x55 + 30 x10 * x57 - 32 x10 * x61
   + 38 x10 * x62 + 92 x10 * x64 - 98 x10 * x76 + 8 x10 * x79 - 3 x11 ^2
   - 78 x11 * x12 - 26 x11 * x14 - 66 x11 * x18 + 96 x11 * x19
   + 60 x11 * x22 - 8 x11 * x33 + 10 x11 * x34 + 2 x11 * x35 - 48 x11 * x42
   + 66 x11 * x47 + 10 x11 * x59 + 96 x11 * x60 - 84 x11 * x62
   - 62 x11 * x68 + 72 x11 * x73 - 86 x12 * x16 + 70 x12 * x17
   + 30 x12 * x26 - 80 x12 * x29 + 38 x12 * x34 - 98 x12 * x37
   - 78 x12 * x41 - 16 x12 * x46 + 96 x12 * x53 + 14 x12 * x55
   + 30 x12 * x58 + 54 x12 * x61 + 38 x12 * x64 + 56 x12 * x67
   + 8 x12 * x69 + 4 x12 * x70 - 48 x13 ^2 + 68 x13 * x18 - 24 x13 * x22
   + 50 x13 * x27 + 26 x13 * x32 - 14 x13 * x36 + 56 x13 * x42
   + 80 x13 * x43 - 60 x13 * x47 - 60 x13 * x51 - 96 x13 * x55
   + 98 x13 * x56 + 4 x13 * x59 + 56 x13 * x62 + 12 x13 * x68
   + 70 x13 * x69 + 36 x13 * x76 + 48 x14 ^2 + 80 x14 * x18 + 32 x14 * x21
   + 42 x14 * x26 + 38 x14 * x31 + 94 x14 * x35 - 30 x14 * x40
   - 6 x14 * x44 + 8 x14 * x46 + 70 x14 * x61 + 88 x14 * x62 + 34 x14 * x65
   - 76 x14 * x66 - 84 x14 * x67 - 20 x14 * x71 - 78 x14 * x72
   - 2 x14 * x76 - 16 x14 * x77 - 64 x14 * x78 + 17 x15 ^2 - 4 x15 * x18
   + 58 x15 * x20 - 78 x15 * x21 + 60 x15 * x22 - 84 x15 * x26
   + 6 x15 * x27 - 44 x15 * x30 + 26 x15 * x34 + 86 x15 * x35
   - 94 x15 * x37 - 66 x15 * x38 + 26 x15 * x39 - 80 x15 * x49
   - 88 x15 * x56 - 62 x15 * x60 + 88 x15 * x63 + 64 x15 * x67
   - 82 x15 * x68 - 8 x15 * x69 - 90 x15 * x78 + 26 x16 ^2 + 10 x16 * x26
   + 22 x16 * x29 + 94 x16 * x35 + 98 x16 * x37 - 48 x16 * x43
   + 56 x16 * x45 + 52 x16 * x50 - 92 x16 * x52 + 16 x16 * x53
   - 34 x16 * x54 - 84 x16 * x58 - 88 x16 * x70 + 88 x16 * x74
   + 82 x16 * x75 - 34 x16 * x77 - 36 x17 * x26 + 20 x17 * x32
   - 4 x17 * x33 + 66 x17 * x34 - 2 x17 * x37 - 76 x17 * x47 - 10 x17 * x48
   + 30 x17 * x49 - 38 x17 * x50 + 30 x17 * x67 + 12 x17 * x68
   - 22 x17 * x69 - 56 x17 * x70 + 6 x17 * x72 + 2 x17 * x74 - 18 x18 * x30
   + 28 x18 * x32 - 94 x18 * x39 - 4 x18 * x43 - 90 x18 * x45
   + 82 x18 * x47 - 2 x18 * x50 - 92 x18 * x54 + 40 x18 * x59
   - 44 x18 * x60 + 2 x18 * x61 - 98 x18 * x64 + 2 x18 * x68 - 48 x18 * x71
   + 38 x18 * x75 - 66 x18 * x77 - 34 x19 * x21 - 22 x19 * x24
   - 56 x19 * x25 - 4 x19 * x28 - 26 x19 * x30 + 10 x19 * x33 + 4 x19 * x38
   + 48 x19 * x41 - 66 x19 * x42 - 16 x19 * x46 - 12 x19 * x48
   - 68 x19 * x51 - 28 x19 * x52 + 36 x19 * x54 + 58 x19 * x57
   + 88 x19 * x65 - 64 x19 * x71 + 92 x19 * x74 - 68 x20 * x26
   - 62 x20 * x33 - 32 x20 * x34 - 66 x20 * x40 - 38 x20 * x42
   - 40 x20 * x44 - 28 x20 * x52 - 46 x20 * x59 + 92 x20 * x60
   - 44 x20 * x62 - 80 x20 * x66 + 58 x20 * x71 - 46 x20 * x74
   + 56 x21 * x23 + 54 x21 * x26 + 88 x21 * x30 - 4 x21 * x33
   + 78 x21 * x35 - 78 x21 * x38 - 22 x21 * x40 - 96 x21 * x42
   - 78 x21 * x44 - 64 x21 * x53 - 46 x21 * x54 + 72 x21 * x63
   + 70 x21 * x64 + 54 x21 * x65 - 68 x21 * x68 + 98 x21 * x70
   - 24 x22 * x29 - 2 x22 * x36 + 46 x22 * x47 + 80 x22 * x53
   + 46 x22 * x56 - 92 x22 * x66 + 70 x22 * x75 - 70 x22 * x77
   - 16 x22 * x79 + 48 x23 * x25 + 46 x23 * x35 - 36 x23 * x40
   - 6 x23 * x41 - 24 x23 * x49 + 24 x23 * x51 - 62 x23 * x53
   - 40 x23 * x69 - 64 x23 * x70 + 60 x24 * x32 + 50 x24 * x35
   + 38 x24 * x37 + 30 x24 * x39 + 40 x24 * x46 + 32 x24 * x51
   + 20 x24 * x59 - 10 x24 * x61 - 28 x24 * x63 + 60 x24 * x67
   + 12 x24 * x71 - 84 x24 * x74 + 26 x24 * x77 + 80 x24 * x78
   + 60 x25 * x36 + 72 x25 * x37 + 22 x25 * x42 + 54 x25 * x43
   + 34 x25 * x44 + 60 x25 * x46 + 44 x25 * x50 + 54 x25 * x52
   + 8 x25 * x55 + 40 x25 * x57 + 46 x25 * x63 + 92 x25 * x72
   - 12 x25 * x75 - 24 x25 * x76 + 94 x25 * x78 + 8 x26 * x28
   + 46 x26 * x37 + 48 x26 * x44 - 2 x26 * x45 + 96 x26 * x46
   + 30 x26 * x48 + 36 x26 * x51 + 34 x26 * x58 + 64 x26 * x63
   + 72 x26 * x64 + 82 x26 * x76 + 12 x26 * x78 + 92 x27 * x28
   + 74 x27 * x38 + 30 x27 * x41 - 56 x27 * x43 - 12 x27 * x48
   - 12 x27 * x59 - 80 x27 * x67 + 80 x27 * x77 - 22 x28 * x31
   - 26 x28 * x36 + 88 x28 * x45 - 44 x28 * x51 + 68 x28 * x54
   - 58 x28 * x55 - 14 x28 * x57 - 62 x28 * x63 - 50 x28 * x64
   + 52 x28 * x65 + 22 x28 * x66 - 78 x28 * x73 - 28 x28 * x74
   + 30 x28 * x76 - 96 x28 * x78 + 36 x28 * x79 - 90 x29 * x33
   - 82 x29 * x35 - 10 x29 * x37 - 24 x29 * x38 + 28 x29 * x40
   - 74 x29 * x42 - 24 x29 * x50 - 86 x29 * x53 - 28 x29 * x57
   + 42 x29 * x62 - 18 x29 * x63 - 72 x29 * x65 + 94 x29 * x67
   + 38 x29 * x69 - 37 x30 ^2 - 18 x30 * x31 - 40 x30 * x32 + 54 x30 * x33
   - 54 x30 * x35 - 14 x30 * x39 + 90 x30 * x40 - 46 x30 * x48
   - 10 x30 * x55 - 68 x30 * x56 - 20 x30 * x60 + 10 x30 * x63
   - 88 x30 * x65 - 68 x30 * x73 + 2 x31 * x35 + 86 x31 * x39
   + 62 x31 * x41 - 96 x31 * x43 + 34 x31 * x46 + 92 x31 * x51
   + 36 x31 * x52 + 80 x31 * x58 + 30 x31 * x60 - 4 x31 * x61
   + 76 x31 * x68 - 64 x31 * x72 - 88 x31 * x75 + 30 x32 * x33
   + 76 x32 * x35 + 68 x32 * x38 + 72 x32 * x40 + 76 x32 * x41
   + 32 x32 * x50 - 14 x32 * x59 - 98 x32 * x62 - 26 x32 * x64
   + 50 x32 * x65 - 96 x32 * x67 + 68 x32 * x69 - 42 x32 * x71
   - 26 x33 * x39 + 28 x33 * x40 + 46 x33 * x42 + 14 x33 * x43
   - 34 x33 * x45 - 24 x33 * x46 - 28 x33 * x50 - 26 x33 * x52
   - 78 x33 * x71 + 8 x33 * x75 - 64 x34 * x35 + 16 x34 * x45
   - 78 x34 * x55 + 8 x34 * x62 + 22 x34 * x65 + 46 x34 * x67
   + 78 x34 * x76 + 88 x35 * x40 - 68 x35 * x47 - 22 x35 * x49
   - 90 x35 * x51 + 96 x35 * x60 + 56 x35 * x61 + 32 x35 * x66
   - 64 x35 * x68 + 68 x35 * x75 - 42 x35 * x76 - 70 x35 * x78
   + 50 x35 * x79 + 40 x36 * x38 + 72 x36 * x39 - 74 x36 * x40
   - 8 x36 * x43 + 16 x36 * x50 - 86 x36 * x51 - 36 x36 * x52
   - 40 x36 * x54 + 64 x36 * x69 + 66 x36 * x71 + 56 x36 * x72
   - 12 x36 * x76 - 24 x36 * x79 - 84 x37 * x41 + 4 x37 * x45
   + 60 x37 * x53 - 72 x37 * x54 - 78 x37 * x56 + 6 x37 * x57
   - 44 x37 * x60 + 94 x37 * x63 + 94 x37 * x71 + 32 x38 ^2 + 56 x38 * x52
   + 94 x38 * x59 + 70 x38 * x61 + 2 x38 * x62 + 24 x38 * x64
   + 90 x38 * x65 - 76 x38 * x67 - 58 x38 * x69 + 44 x38 * x74
   + 74 x39 * x40 + 22 x39 * x43 - 20 x39 * x49 + 82 x39 * x50
   + 60 x39 * x51 + 8 x39 * x52 + 2 x39 * x53 + 20 x39 * x55 + 78 x39 * x64
   - 50 x39 * x67 + 64 x39 * x68 + 60 x39 * x75 + 82 x39 * x76
   - 14 x39 * x77 + 21 x40 ^2 - 14 x40 * x43 + 56 x40 * x48 - 94 x40 * x58
   - 50 x40 * x66 - 8 x40 * x78 - 10 x41 * x48 - 40 x41 * x49
   + 36 x41 * x54 - 22 x41 * x57 - 18 x41 * x62 + 48 x41 * x65
   - 42 x41 * x67 + 84 x41 * x68 + 2 x41 * x75 - 30 x41 * x76
   + 88 x41 * x79 + 6 x42 * x48 - 90 x42 * x56 - 74 x42 * x57
   + 62 x42 * x61 - 84 x42 * x65 + 58 x42 * x72 - 58 x42 * x75
   + 46 x42 * x76 - 40 x42 * x77 - 24 x43 * x53 - 16 x43 * x54
   - 14 x43 * x60 + 56 x43 * x65 - 78 x43 * x69 + 44 x43 * x74
   - 60 x43 * x75 + 32 x43 * x79 - 4 x44 * x50 + 2 x44 * x61 - 4 x44 * x68
   - 8 x44 * x69 + 86 x44 * x73 - 86 x44 * x77 - 17 x45 ^2 + 88 x45 * x47
   + 52 x45 * x49 - 66 x45 * x57 - 86 x45 * x59 + 52 x45 * x60
   - 42 x45 * x70 + 96 x45 * x74 - 52 x45 * x77 - 14 x46 * x50
   + 16 x46 * x55 + 92 x46 * x57 + 36 x46 * x58 - 94 x46 * x67
   - 74 x46 * x70 + 42 x46 * x73 - 58 x46 * x74 - 86 x46 * x76
   + 26 x47 * x58 - 50 x47 * x59 + 32 x47 * x68 - 28 x47 * x72
   - 60 x47 * x73 + 88 x47 * x75 + 66 x48 * x49 - 74 x48 * x61
   + 2 x48 * x69 - 48 x48 * x77 + 30 x48 * x78 - 96 x48 * x79
   + 82 x49 * x53 + 98 x49 * x58 - 96 x49 * x63 - 20 x49 * x64
   + 18 x49 * x66 - 18 x49 * x67 + 56 x49 * x72 - 80 x49 * x75
   - 40 x49 * x78 + 62 x50 * x51 + 78 x50 * x55 - 96 x50 * x56
   + 88 x50 * x57 + 66 x50 * x61 + 86 x50 * x66 - 62 x50 * x69
   + 56 x50 * x72 - 44 x50 * x74 - 84 x51 * x57 + 20 x51 * x71
   + 48 x51 * x72 - 94 x51 * x76 - 30 x52 * x53 - 86 x52 * x56
   - 10 x52 * x58 - 10 x52 * x63 - 64 x52 * x64 - 4 x52 * x66
   - 10 x52 * x69 + 40 x52 * x70 + 16 x53 * x54 - 30 x53 * x55
   - 80 x53 * x57 + 8 x53 * x59 - 90 x53 * x63 - 92 x53 * x68 + 4 x53 * x71
   + 74 x53 * x79 - 41 x54 ^2 + 16 x54 * x62 + 8 x54 * x63 + 66 x54 * x68
   - 78 x54 * x78 - 12 x55 * x58 + 58 x55 * x61 - 40 x55 * x62
   + 26 x55 * x67 - 32 x55 * x71 - 44 x55 * x73 - 7 x56 ^2 + 68 x56 * x60
   - 58 x56 * x71 - 6 x56 * x72 - 64 x56 * x75 - 34 x56 * x77 + 8 x57 * x58
   + 46 x57 * x66 + 4 x57 * x67 + 46 x57 * x70 + 90 x57 * x79 + 33 x58 ^2
   + 16 x58 * x60 - 54 x58 * x64 - 10 x58 * x66 - 16 x58 * x73
   + 16 x58 * x76 - 54 x58 * x78 - 70 x58 * x79 - 24 x59 * x61
   - 38 x59 * x62 - 74 x59 * x66 + 42 x59 * x74 + 78 x59 * x76
   - 48 x60 * x72 + 58 x60 * x74 - 74 x60 * x76 - 42 x61 * x64
   + 36 x61 * x67 - 96 x61 * x74 + 98 x62 * x64 + 18 x62 * x68
   - 78 x62 * x71 + 34 x62 * x73 + 38 x62 * x76 + 88 x63 * x66
   + 66 x63 * x69 + 34 x63 * x72 - 88 x63 * x74 + 36 x63 * x78
   - 50 x63 * x79 + 32 x64 * x66 - 28 x64 * x69 + 18 x64 * x74
   - 78 x64 * x78 - 52 x65 * x67 + 18 x65 * x68 - 64 x65 * x73
   + 10 x65 * x76 - 42 x65 * x78 + 44 x66 ^2 + 10 x66 * x73 - 92 x66 * x76
   - 45 x67 ^2 - 4 x67 * x68 - 84 x68 * x76 + 40 x69 * x70 + 78 x69 * x74
   + 48 x69 * x75 + x70 ^2 - 46 x70 * x72 + 12 x70 * x76 - 30 x70 * x79
   + 64 x71 * x72 - 78 x71 * x76 - 16 x71 * x77 - 22 x71 * x78
   + 4 x73 * x78 - 36 x73 * x79 + 28 x75 ^2 + 6 x75 * x77 + 30 x76 * x77
   - 70 x77 * x79 ] / 2 
Subject To
Bounds
 x0 <= 1
 x1 <= 1
 x2 <= 1
 x3 <= 1
 x4 <= 1
 x5 <= 1
 x6 <= 1
 x7 <= 1
 x8 <= 1
 x9 <= 1
 x10 <= 1
 x11 <= 1
 x12 <= 1
 x13 <= 1
 x14 <= 1
 x15 <= 1
 x16 <= 1
 x17 <= 1
 x18 <= 1
 x19 <= 1
 x20 <= 1
 x21 <= 1
 x22 <= 1
 x23 <= 1
 x24 <= 1
 x25 <= 1
 x26 <= 1
 x27 <= 1
 x28 <= 1
 x29 <= 1
 x30 <= 1
 x31 <= 1
 x32 <= 1
 x33 <= 1
 x34 <= 1
 x35 <= 1
 x36 <= 1
 x37 <= 1
 x38 <= 1
 x39 <= 1
 x40 <= 1
 x41 <= 1
 x42 <= 1
 x43 <= 1
 x44 <= 1
 x45 <= 1
 x46 <= 1
 x47 <= 1
 x48 <= 1
 x49 <= 1
 x50 <= 1
 x51 <= 1
 x52 <= 1
 x53 <= 1
 x54 <= 1
 x55 <= 1
 x56 <= 1
 x57 <= 1
 x58 <= 1
 x59 <= 1
 x60 <= 1
 x61 <= 1
 x62 <= 1
 x63 <= 1
 x64 <= 1
 x65 <= 1
 x66 <= 1
 x67 <= 1
 x68 <= 1
 x69 <= 1
 x70 <= 1
 x71 <= 1
 x72 <= 1
 x73 <= 1
 x74 <= 1
 x75 <= 1
 x76 <= 1
 x77 <= 1
 x78 <= 1
 x79 <= 1
End
